0
0
0
0
17
0
0
0
0
0
0
0
0
0
0
0
0
0
0
0
0
0
1 2 0
1 3 1
1 4 1
1 5 0
1 6 1
1 7 0
1 8 0
1 9 1
1 10 0
1 11 0
1 12 0
1 13 0
1 14 0
1 15 1
1 16 0
1 17 0
2 3 0
2 4 1
2 5 0
2 6 1
2 7 1
2 8 0
2 9 0
2 10 0
2 11 1
2 12 0
2 13 1
2 14 0
2 15 1
2 16 0
2 17 1
3 4 1
3 5 1
3 6 0
3 7 0
3 8 0
3 9 0
3 10 1
3 11 0
3 12 1
3 13 0
3 14 1
3 15 0
3 16 1
3 17 1
4 5 0
4 6 1
4 7 1
4 8 0
4 9 0
4 10 1
4 11 1
4 12 1
4 13 0
4 14 0
4 15 1
4 16 0
4 17 1
5 6 0
5 7 0
5 8 0
5 9 0
5 10 1
5 11 1
5 12 1
5 13 1
5 14 1
5 15 0
5 16 1
5 17 0
6 7 0
6 8 0
6 9 0
6 10 0
6 11 1
6 12 1
6 13 1
6 14 1
6 15 1
6 16 0
6 17 0
7 8 0
7 9 0
7 10 0
7 11 1
7 12 0
7 13 0
7 14 1
7 15 1
7 16 1
7 17 1
8 9 1
8 10 1
8 11 1
8 12 1
8 13 0
8 14 1
8 15 1
8 16 0
8 17 1
9 10 1
9 11 0
9 12 1
9 13 0
9 14 0
9 15 0
9 16 1
9 17 1
10 11 0
10 12 1
10 13 1
10 14 1
10 15 0
10 16 0
10 17 1
11 12 0
11 13 0
11 14 0
11 15 0
11 16 0
11 17 0
12 13 1
12 14 1
12 15 1
12 16 1
12 17 1
13 14 1
13 15 1
13 16 1
13 17 1
14 15 0
14 16 0
14 17 1
15 16 1
15 17 0
16 17 1
